p cnf 221 2
c ind 189 190 191 192 193 194 196 217 219 182 0
c ind 218 195 183 184 216 185 215 186 187 188 0
c ind 211 214 210 213 209 212 208 207 206 205 0
c ind 204 203 201 202 200 199 197 198 1 0
c ret 36 37 38 39 40 41 42 43 9 44 0
c ret 45 46 47 48 49 50 51 52 53 54 0
c ret 55 56 57 58 59 60 61 62 63 10 0
c ret 64 65 66 67 68 69 70 11 71 72 0
c ret 73 74 2 75 76 77 78 79 80 81 0
c ret 82 83 84 85 86 87 12 88 89 90 0
c ret 91 92 93 94 95 96 97 98 99 100 0
c ret 101 102 103 104 105 106 13 107 108 109 0
c ret 3 110 111 112 113 114 115 116 117 118 0
c ret 119 120 121 122 123 124 125 126 14 127 0
c ret 128 129 130 131 132 133 134 135 136 137 0
c ret 15 138 139 140 141 16 142 143 144 145 0
c ret 146 147 148 149 4 150 151 152 153 154 0
c ret 155 156 157 158 159 160 161 162 163 164 0
c ret 165 166 167 17 168 169 170 171 18 172 0
c ret 173 174 175 176 177 178 179 180 181 5 0
c ret 19 20 21 22 6 23 24 25 7 26 0
c ret 27 28 29 30 8 31 32 33 34 35 0
1 0
220 0

